n_res = 4;
rc = [ 0, 0, 0, 0 ];
n_tasks = 30;
d = [ 2, 5, 9, 7, 6, 7, 9, 2, 5, 2, 10, 8, 5, 8, 6, 7, 7, 5, 9, 10, 8, 10, 7, 1, 2, 4, 7, 9, 2, 1 ];
rr = [| 0, 0, 0, 0, 0, 0, 0, 0, 0, 0, 0, 0, 0, 0, 0, 0, 0, 0, 0, 0, 0, 0, 0, 0, 0, 0, 0, 0, 0, 0
      | 0, 0, 0, 0, 0, 0, 0, 0, 0, 0, 0, 0, 0, 0, 0, 0, 0, 0, 0, 0, 0, 0, 0, 0, 0, 0, 0, 0, 0, 0
      | 0, 0, 0, 0, 0, 0, 0, 0, 0, 0, 0, 0, 0, 0, 0, 0, 0, 0, 0, 0, 0, 0, 0, 0, 0, 0, 0, 0, 0, 0
      | 0, 0, 0, 0, 0, 0, 0, 0, 0, 0, 0, 0, 0, 0, 0, 0, 0, 0, 0, 0, 0, 0, 0, 0, 0, 0, 0, 0, 0, 0 |];
suc = [ { 11, 24, 27 },
       { 6, 7, 9 },
       { 4, 16, 22 },
       { 5, 8, 11 },
       { 18, 19, 23 },
       { 11, 13, 17 },
       { 10, 15, 20 },
       { 13, 17, 23 },
       { 12, 13, 16 },
       { 12, 14, 25 },
       { 12, 15, 20 },
       { 29, 30 },
       { 15, 18, 21 },
       { 21, 22, 27 },
       { 25, 26, 30 },
       { 19, 20, 26 },
       { 18, 19 },
       { 24, 25, 30 },
       { 27 },
       { 21 },
       { 29 },
       { 23 },
       { 24 },
       { 26, 29 },
       { 28 },
       { 28 },
       { 28 },
       {  },
       {  },
       {  } ];
